DIMACS_lns/graph-1000-439.col
p edge 1000 1823
e 1 733
e 1 950
e 1 515
e 3 857
e 3 299
e 3 144
e 4 130
e 4 612
e 4 225
e 4 886
e 4 40
e 6 165
e 6 409
e 6 872
e 6 65
e 6 861
e 6 103
e 6 146
e 7 350
e 7 376
e 7 157
e 8 810
e 8 104
e 8 565
e 8 312
e 8 765
e 9 129
e 9 945
e 9 935
e 9 632
e 9 17
e 9 904
e 9 902
e 10 940
e 10 40
e 10 280
e 10 624
e 10 611
e 10 303
e 11 408
e 11 561
e 11 438
e 12 692
e 12 850
e 12 498
e 12 128
e 13 905
e 13 88
e 13 92
e 13 498
e 13 241
e 14 367
e 14 765
e 14 139
e 14 410
e 15 773
e 15 661
e 15 63
e 16 941
e 16 88
e 16 663
e 16 79
e 17 811
e 17 822
e 18 772
e 18 93
e 18 334
e 18 227
e 18 371
e 18 733
e 18 826
e 19 720
e 19 802
e 19 841
e 19 89
e 19 195
e 19 421
e 20 663
e 20 572
e 20 418
e 20 192
e 20 539
e 20 297
e 21 972
e 21 408
e 21 665
e 21 544
e 21 208
e 21 107
e 22 562
e 22 855
e 22 111
e 22 363
e 22 47
e 22 656
e 24 69
e 24 591
e 24 568
e 24 651
e 24 902
e 25 81
e 25 630
e 25 897
e 25 336
e 25 374
e 26 211
e 26 719
e 26 197
e 26 850
e 26 978
e 27 267
e 27 202
e 27 221
e 27 303
e 29 83
e 29 104
e 29 633
e 29 643
e 30 848
e 30 697
e 30 845
e 30 693
e 30 422
e 30 905
e 30 728
e 31 849
e 31 332
e 31 406
e 32 844
e 32 706
e 32 260
e 34 176
e 34 200
e 34 625
e 34 70
e 37 55
e 37 833
e 37 569
e 37 933
e 37 598
e 37 975
e 39 157
e 39 607
e 39 239
e 39 572
e 39 577
e 40 168
e 40 235
e 40 218
e 40 403
e 40 877
e 41 816
e 41 966
e 41 817
e 42 945
e 42 707
e 42 619
e 42 755
e 42 282
e 42 775
e 42 450
e 42 491
e 47 837
e 47 352
e 49 117
e 49 201
e 49 908
e 49 792
e 49 935
e 49 514
e 49 972
e 50 150
e 50 714
e 50 70
e 50 456
e 50 752
e 51 491
e 51 661
e 51 152
e 52 697
e 52 800
e 52 976
e 52 136
e 52 599
e 52 588
e 52 293
e 53 569
e 53 935
e 53 765
e 53 510
e 54 150
e 54 401
e 54 129
e 54 108
e 55 692
e 55 455
e 55 493
e 55 730
e 56 976
e 56 75
e 56 787
e 56 362
e 56 888
e 57 67
e 57 728
e 57 364
e 57 355
e 57 863
e 57 451
e 57 298
e 58 338
e 58 277
e 58 128
e 58 891
e 58 928
e 58 286
e 60 392
e 60 828
e 60 704
e 60 520
e 62 289
e 62 222
e 62 125
e 62 607
e 62 213
e 63 826
e 63 466
e 63 350
e 63 724
e 64 619
e 64 608
e 64 530
e 65 459
e 65 149
e 65 230
e 65 101
e 65 819
e 66 524
e 66 882
e 66 877
e 66 363
e 67 356
e 67 481
e 67 303
e 69 203
e 69 909
e 69 381
e 69 860
e 70 329
e 70 193
e 71 203
e 71 307
e 71 672
e 71 784
e 71 760
e 73 432
e 73 397
e 73 279
e 75 348
e 75 941
e 75 614
e 75 740
e 75 590
e 75 149
e 75 87
e 75 368
e 78 820
e 78 886
e 78 813
e 79 514
e 79 510
e 79 302
e 79 251
e 79 624
e 81 604
e 81 886
e 81 452
e 82 415
e 82 837
e 82 759
e 82 712
e 83 286
e 83 763
e 83 228
e 83 826
e 83 582
e 84 140
e 84 548
e 84 329
e 84 904
e 84 172
e 85 557
e 85 794
e 85 823
e 85 127
e 86 148
e 86 917
e 86 967
e 87 325
e 87 344
e 87 159
e 87 865
e 87 958
e 87 356
e 87 768
e 87 114
e 88 881
e 88 283
e 88 855
e 88 979
e 88 400
e 88 365
e 88 296
e 88 771
e 89 939
e 89 334
e 90 176
e 90 450
e 90 621
e 90 521
e 90 413
e 92 982
e 92 546
e 93 206
e 93 625
e 93 748
e 93 632
e 93 524
e 93 377
e 94 198
e 94 383
e 94 917
e 95 593
e 95 561
e 95 346
e 96 810
e 96 213
e 96 395
e 97 966
e 97 887
e 97 863
e 98 200
e 98 705
e 98 207
e 98 533
e 101 530
e 101 301
e 103 905
e 103 485
e 103 115
e 104 945
e 104 383
e 104 897
e 104 477
e 104 314
e 104 651
e 104 854
e 105 493
e 105 184
e 105 490
e 106 347
e 106 881
e 106 914
e 106 201
e 106 346
e 106 386
e 107 531
e 107 259
e 107 946
e 107 495
e 107 732
e 108 435
e 108 904
e 108 621
e 108 963
e 108 664
e 109 879
e 109 946
e 109 870
e 110 974
e 110 363
e 110 561
e 110 150
e 111 715
e 111 762
e 112 427
e 112 961
e 112 546
e 112 892
e 112 839
e 113 800
e 113 924
e 113 191
e 113 236
e 113 755
e 113 634
e 114 702
e 114 159
e 114 627
e 114 907
e 115 860
e 115 295
e 115 119
e 115 842
e 115 353
e 115 422
e 115 200
e 115 817
e 116 763
e 116 605
e 116 577
e 117 357
e 117 699
e 118 153
e 118 816
e 118 772
e 119 808
e 119 995
e 120 840
e 120 855
e 120 260
e 120 255
e 121 702
e 121 507
e 121 497
e 121 461
e 121 596
e 121 944
e 121 128
e 125 744
e 125 841
e 125 283
e 125 355
e 126 947
e 126 429
e 126 800
e 126 766
e 126 316
e 127 716
e 127 167
e 127 231
e 127 191
e 128 841
e 128 204
e 129 313
e 129 835
e 129 862
e 129 757
e 130 921
e 130 274
e 130 683
e 130 282
e 133 380
e 133 918
e 133 726
e 133 379
e 133 940
e 133 429
e 135 953
e 135 635
e 135 157
e 136 858
e 136 623
e 136 531
e 136 137
e 137 890
e 137 296
e 137 810
e 139 486
e 139 649
e 139 421
e 139 544
e 140 823
e 140 963
e 140 307
e 140 274
e 140 742
e 141 367
e 141 440
e 141 311
e 141 281
e 142 717
e 142 720
e 142 664
e 142 873
e 143 939
e 143 818
e 143 746
e 144 745
e 144 935
e 144 924
e 145 616
e 145 494
e 145 325
e 145 300
e 146 819
e 146 956
e 146 150
e 147 503
e 147 300
e 147 704
e 147 332
e 147 695
e 147 632
e 148 970
e 148 954
e 148 925
e 148 702
e 148 627
e 149 801
e 149 157
e 150 438
e 150 593
e 150 222
e 151 852
e 151 403
e 151 333
e 151 715
e 151 791
e 151 175
e 152 416
e 152 208
e 152 228
e 152 787
e 152 845
e 153 862
e 153 974
e 153 280
e 153 776
e 153 565
e 153 816
e 154 569
e 154 567
e 154 283
e 154 303
e 156 277
e 156 354
e 156 476
e 156 830
e 156 726
e 157 896
e 157 805
e 157 283
e 158 175
e 158 463
e 158 415
e 159 805
e 159 270
e 159 974
e 159 704
e 159 187
e 159 201
e 159 429
e 164 709
e 164 567
e 164 982
e 164 866
e 165 680
e 165 610
e 165 607
e 165 910
e 166 362
e 166 914
e 166 639
e 167 811
e 167 193
e 167 493
e 167 814
e 168 923
e 168 192
e 168 726
e 168 804
e 168 502
e 168 765
e 168 329
e 168 379
e 169 820
e 169 606
e 169 827
e 169 892
e 169 476
e 170 585
e 170 357
e 170 659
e 172 350
e 172 474
e 172 602
e 172 870
e 172 259
e 173 917
e 173 729
e 173 710
e 173 864
e 173 369
e 173 185
e 173 364
e 175 665
e 175 682
e 175 667
e 175 908
e 176 497
e 176 920
e 177 691
e 177 370
e 177 766
e 177 616
e 178 827
e 178 347
e 178 923
e 179 456
e 179 949
e 179 700
e 179 510
e 180 611
e 180 251
e 180 888
e 180 680
e 180 995
e 181 514
e 181 828
e 181 650
e 181 753
e 181 936
e 183 513
e 183 289
e 183 321
e 184 784
e 184 720
e 184 199
e 185 251
e 185 840
e 186 787
e 186 987
e 186 817
e 187 815
e 187 779
e 187 356
e 187 303
e 187 695
e 188 603
e 188 338
e 188 478
e 188 276
e 188 934
e 191 449
e 191 775
e 192 760
e 192 803
e 192 599
e 193 777
e 193 340
e 193 846
e 193 312
e 193 694
e 193 688
e 194 339
e 194 507
e 194 489
e 195 843
e 195 629
e 197 876
e 197 792
e 197 348
e 197 239
e 198 617
e 198 272
e 198 640
e 198 266
e 198 949
e 199 614
e 199 924
e 199 376
e 199 287
e 199 612
e 200 329
e 200 976
e 200 939
e 201 203
e 201 550
e 202 296
e 202 804
e 203 526
e 204 435
e 204 680
e 204 796
e 205 726
e 205 986
e 205 301
e 205 267
e 205 615
e 206 629
e 206 718
e 206 662
e 207 711
e 207 739
e 207 219
e 207 363
e 207 959
e 207 578
e 208 527
e 208 794
e 208 659
e 208 676
e 209 790
e 209 265
e 209 287
e 209 868
e 209 800
e 210 704
e 210 524
e 210 974
e 210 390
e 211 873
e 211 549
e 211 925
e 211 893
e 213 478
e 213 349
e 213 428
e 213 888
e 215 365
e 215 255
e 215 882
e 215 755
e 215 578
e 216 422
e 216 425
e 216 295
e 216 239
e 218 680
e 218 960
e 218 784
e 219 592
e 219 566
e 220 405
e 220 413
e 220 774
e 221 248
e 221 776
e 222 225
e 222 406
e 222 890
e 222 336
e 224 944
e 224 939
e 224 287
e 224 426
e 225 632
e 225 772
e 225 522
e 225 941
e 226 938
e 226 625
e 226 357
e 227 486
e 227 522
e 228 389
e 228 902
e 228 700
e 228 946
e 228 267
e 228 698
e 230 513
e 230 900
e 230 908
e 230 376
e 230 956
e 230 735
e 230 286
e 231 815
e 231 822
e 231 311
e 231 634
e 232 542
e 232 991
e 232 495
e 232 444
e 233 705
e 233 235
e 233 910
e 235 794
e 235 451
e 236 869
e 236 926
e 237 769
e 237 347
e 237 526
e 237 893
e 239 745
e 239 418
e 241 757
e 241 745
e 241 960
e 243 759
e 243 800
e 243 517
e 246 511
e 246 344
e 246 357
e 246 665
e 246 435
e 248 942
e 248 487
e 248 602
e 248 899
e 250 725
e 250 664
e 250 619
e 251 868
e 251 859
e 254 944
e 254 889
e 254 762
e 255 692
e 255 302
e 255 857
e 255 746
e 257 408
e 257 277
e 257 354
e 257 860
e 257 341
e 257 973
e 258 975
e 258 746
e 258 954
e 259 854
e 259 601
e 260 472
e 260 356
e 260 850
e 260 273
e 260 744
e 260 911
e 260 298
e 262 958
e 262 617
e 262 879
e 265 420
e 265 630
e 265 822
e 266 927
e 266 419
e 266 862
e 266 827
e 266 843
e 266 403
e 266 303
e 267 714
e 267 651
e 267 927
e 267 448
e 270 293
e 270 926
e 270 882
e 270 565
e 270 739
e 270 840
e 271 478
e 271 856
e 271 377
e 272 938
e 272 524
e 273 400
e 273 711
e 274 923
e 274 280
e 274 287
e 274 899
e 274 610
e 274 569
e 275 639
e 275 505
e 275 381
e 276 988
e 276 424
e 276 510
e 276 461
e 277 937
e 277 689
e 277 902
e 277 533
e 277 850
e 277 692
e 279 337
e 279 720
e 279 724
e 280 370
e 281 346
e 281 959
e 282 569
e 283 572
e 283 377
e 283 735
e 283 628
e 283 515
e 283 982
e 283 860
e 283 782
e 284 643
e 284 419
e 284 459
e 284 435
e 284 569
e 284 498
e 284 692
e 284 844
e 286 961
e 286 927
e 287 963
e 287 395
e 287 713
e 287 905
e 288 438
e 288 995
e 288 833
e 288 869
e 288 870
e 288 505
e 289 949
e 289 431
e 289 650
e 289 873
e 293 801
e 293 325
e 295 380
e 295 425
e 295 699
e 295 984
e 296 317
e 296 725
e 296 787
e 297 510
e 297 307
e 298 352
e 299 934
e 299 725
e 299 511
e 299 435
e 300 386
e 300 539
e 300 683
e 300 844
e 301 548
e 301 397
e 301 666
e 302 708
e 302 353
e 302 588
e 302 426
e 302 594
e 303 440
e 303 482
e 303 882
e 303 735
e 304 666
e 304 633
e 304 450
e 304 321
e 304 445
e 304 879
e 307 463
e 307 871
e 307 522
e 307 381
e 307 564
e 307 440
e 311 629
e 312 429
e 312 461
e 312 822
e 312 364
e 313 607
e 313 771
e 313 350
e 314 358
e 314 792
e 316 622
e 316 878
e 317 801
e 317 660
e 319 520
e 319 859
e 319 590
e 320 940
e 320 438
e 320 614
e 320 584
e 321 779
e 321 420
e 323 487
e 323 493
e 323 845
e 323 682
e 324 484
e 324 598
e 324 388
e 324 475
e 324 606
e 325 903
e 325 984
e 325 826
e 327 557
e 327 695
e 327 928
e 327 665
e 327 487
e 327 965
e 329 633
e 329 859
e 330 526
e 330 793
e 330 735
e 332 842
e 332 793
e 333 364
e 333 688
e 333 821
e 333 833
e 333 758
e 333 637
e 334 524
e 334 693
e 334 630
e 334 960
e 335 409
e 335 869
e 335 932
e 335 663
e 336 588
e 337 358
e 337 564
e 338 947
e 338 440
e 339 768
e 339 952
e 339 492
e 339 655
e 339 875
e 340 515
e 340 990
e 340 615
e 340 492
e 341 603
e 341 970
e 341 960
e 344 363
e 346 350
e 346 425
e 347 920
e 347 577
e 348 766
e 348 787
e 348 677
e 348 988
e 348 903
e 348 725
e 349 392
e 349 887
e 349 549
e 350 842
e 350 527
e 350 392
e 350 603
e 351 890
e 351 450
e 351 593
e 352 440
e 352 566
e 352 773
e 352 539
e 353 436
e 353 505
e 354 709
e 354 819
e 354 963
e 354 867
e 355 813
e 356 705
e 356 733
e 357 493
e 357 814
e 357 871
e 357 869
e 357 689
e 358 812
e 358 371
e 358 709
e 358 848
e 359 897
e 359 475
e 359 520
e 359 869
e 360 911
e 360 865
e 360 577
e 360 791
e 360 640
e 362 419
e 362 414
e 362 888
e 362 467
e 363 958
e 364 821
e 364 672
e 364 693
e 364 484
e 364 855
e 365 587
e 365 666
e 365 456
e 365 595
e 367 830
e 367 492
e 367 692
e 368 960
e 368 459
e 369 784
e 369 628
e 370 843
e 370 491
e 371 625
e 374 522
e 374 858
e 374 942
e 376 539
e 376 560
e 376 390
e 376 724
e 377 599
e 377 542
e 379 784
e 379 408
e 380 610
e 380 992
e 381 811
e 381 963
e 381 619
e 381 516
e 383 735
e 383 713
e 386 740
e 388 633
e 388 424
e 388 477
e 389 947
e 389 808
e 389 880
e 390 482
e 390 481
e 391 656
e 391 984
e 391 662
e 391 392
e 392 752
e 392 473
e 392 408
e 393 471
e 393 417
e 393 418
e 395 562
e 397 614
e 397 567
e 398 433
e 398 542
e 398 991
e 400 595
e 400 869
e 401 871
e 401 750
e 401 533
e 403 691
e 403 665
e 403 851
e 404 802
e 404 708
e 404 909
e 405 708
e 405 776
e 406 591
e 406 460
e 406 704
e 408 968
e 408 818
e 409 438
e 410 815
e 410 855
e 411 815
e 411 856
e 411 827
e 411 774
e 413 651
e 413 462
e 413 860
e 413 700
e 414 960
e 414 821
e 414 972
e 415 573
e 415 598
e 416 708
e 416 682
e 416 970
e 416 796
e 417 738
e 417 431
e 418 463
e 418 659
e 419 938
e 419 642
e 419 521
e 419 760
e 420 670
e 421 771
e 421 640
e 421 892
e 422 793
e 423 841
e 423 808
e 423 967
e 423 831
e 424 452
e 424 717
e 425 476
e 425 726
e 425 939
e 425 530
e 425 556
e 426 859
e 426 510
e 427 656
e 427 628
e 427 445
e 427 942
e 428 752
e 428 964
e 428 962
e 428 937
e 431 585
e 431 472
e 431 546
e 432 489
e 432 771
e 433 524
e 433 854
e 433 476
e 435 516
e 436 960
e 436 846
e 439 991
e 439 693
e 439 652
e 439 694
e 440 698
e 440 598
e 442 469
e 442 765
e 442 863
e 442 486
e 442 545
e 444 842
e 444 649
e 445 598
e 445 974
e 448 794
e 448 850
e 448 567
e 449 988
e 449 941
e 450 805
e 451 992
e 451 990
e 451 507
e 452 572
e 452 602
e 452 676
e 452 707
e 452 565
e 455 655
e 455 918
e 455 642
e 456 575
e 456 594
e 460 793
e 460 609
e 460 642
e 460 520
e 461 603
e 461 632
e 462 822
e 462 794
e 462 753
e 462 838
e 463 875
e 463 555
e 466 699
e 466 850
e 466 910
e 466 942
e 467 916
e 467 900
e 468 618
e 468 591
e 468 558
e 468 561
e 469 526
e 469 780
e 471 667
e 471 630
e 471 762
e 471 780
e 472 921
e 472 634
e 473 828
e 473 572
e 474 879
e 474 706
e 475 505
e 475 684
e 476 558
e 476 822
e 476 866
e 477 886
e 478 595
e 478 493
e 478 763
e 478 517
e 479 615
e 479 490
e 479 602
e 481 866
e 481 718
e 482 494
e 484 944
e 484 607
e 485 852
e 485 746
e 485 947
e 485 923
e 485 544
e 486 505
e 486 555
e 486 552
e 486 928
e 487 856
e 487 827
e 488 880
e 488 958
e 488 535
e 488 963
e 488 753
e 489 982
e 489 603
e 489 925
e 490 566
e 490 530
e 490 938
e 492 497
e 493 632
e 494 559
e 495 606
e 495 521
e 495 796
e 498 828
e 499 848
e 499 531
e 499 861
e 502 938
e 502 665
e 503 885
e 503 575
e 503 545
e 503 746
e 503 753
e 503 587
e 505 904
e 505 926
e 507 553
e 507 871
e 510 524
e 510 896
e 510 999
e 511 790
e 513 861
e 513 826
e 514 558
e 514 700
e 514 897
e 514 614
e 515 524
e 515 630
e 515 605
e 516 582
e 516 891
e 516 871
e 517 839
e 517 765
e 520 991
e 520 609
e 521 973
e 521 964
e 522 671
e 522 740
e 526 742
e 527 939
e 527 965
e 528 630
e 528 821
e 528 774
e 529 844
e 529 920
e 529 625
e 530 735
e 530 897
e 530 670
e 531 661
e 531 881
e 532 825
e 532 604
e 532 860
e 533 662
e 533 796
e 533 671
e 535 801
e 535 655
e 538 823
e 538 705
e 538 947
e 539 619
e 542 718
e 544 808
e 544 914
e 544 580
e 544 587
e 544 744
e 545 956
e 545 975
e 545 691
e 545 947
e 545 819
e 548 717
e 549 921
e 549 986
e 549 748
e 549 880
e 549 861
e 550 614
e 550 695
e 552 849
e 552 987
e 552 777
e 552 749
e 553 966
e 553 911
e 553 594
e 553 762
e 555 560
e 555 820
e 556 818
e 556 664
e 556 677
e 557 855
e 558 742
e 558 709
e 558 713
e 559 697
e 559 757
e 560 842
e 560 940
e 560 708
e 561 711
e 562 964
e 562 595
e 562 745
e 564 850
e 564 897
e 564 730
e 564 598
e 565 672
e 565 595
e 565 979
e 565 810
e 565 844
e 565 752
e 566 844
e 566 584
e 566 972
e 567 914
e 567 596
e 567 844
e 567 856
e 568 953
e 568 711
e 568 775
e 569 796
e 569 839
e 573 914
e 573 582
e 573 852
e 575 961
e 575 662
e 575 700
e 578 818
e 578 746
e 578 780
e 580 896
e 580 835
e 580 863
e 584 824
e 584 982
e 584 790
e 584 758
e 584 639
e 585 888
e 585 944
e 587 833
e 587 612
e 590 717
e 590 601
e 591 713
e 591 618
e 592 621
e 592 740
e 592 897
e 593 630
e 593 735
e 593 896
e 594 960
e 596 684
e 598 953
e 598 792
e 599 604
e 599 609
e 600 804
e 600 624
e 600 623
e 601 935
e 602 745
e 602 762
e 604 725
e 604 977
e 605 910
e 605 632
e 605 845
e 606 953
e 606 767
e 607 767
e 608 787
e 608 965
e 609 849
e 609 738
e 610 777
e 610 663
e 610 968
e 610 845
e 611 814
e 611 827
e 611 670
e 612 868
e 612 810
e 614 999
e 615 984
e 616 664
e 616 838
e 616 923
e 617 712
e 617 800
e 618 808
e 618 705
e 621 946
e 621 814
e 622 851
e 622 825
e 623 640
e 624 825
e 624 880
e 624 914
e 625 979
e 626 733
e 626 921
e 626 714
e 626 671
e 626 848
e 627 640
e 627 683
e 627 828
e 628 748
e 628 926
e 628 999
e 628 858
e 629 842
e 632 897
e 632 781
e 632 935
e 634 637
e 635 937
e 635 903
e 635 910
e 637 710
e 640 662
e 642 867
e 643 885
e 643 878
e 643 940
e 649 904
e 649 974
e 650 828
e 651 814
e 651 907
e 651 841
e 652 841
e 652 800
e 652 978
e 655 699
e 655 849
e 656 978
e 659 801
e 660 758
e 660 993
e 660 833
e 660 771
e 662 694
e 662 755
e 663 766
e 664 877
e 664 713
e 664 781
e 666 993
e 667 717
e 670 978
e 670 932
e 670 848
e 671 815
e 671 973
e 671 921
e 676 907
e 677 851
e 677 712
e 677 878
e 677 728
e 678 774
e 678 776
e 678 927
e 678 760
e 682 860
e 682 705
e 683 767
e 683 845
e 684 993
e 684 899
e 688 749
e 688 833
e 688 784
e 689 898
e 691 719
e 691 711
e 691 886
e 692 833
e 692 867
e 693 891
e 695 942
e 695 908
e 695 891
e 698 892
e 699 921
e 699 732
e 700 864
e 700 963
e 702 871
e 702 846
e 704 794
e 704 776
e 705 822
e 706 962
e 707 882
e 710 716
e 710 886
e 712 986
e 715 782
e 715 827
e 716 863
e 717 946
e 718 945
e 718 822
e 719 933
e 719 951
e 724 898
e 724 729
e 728 775
e 728 872
e 729 812
e 729 942
e 730 927
e 730 878
e 732 864
e 732 800
e 732 978
e 733 866
e 735 967
e 738 855
e 739 748
e 739 941
e 740 830
e 746 877
e 746 831
e 749 920
e 749 950
e 749 825
e 750 885
e 750 819
e 752 990
e 755 771
e 758 936
e 758 854
e 759 781
e 759 990
e 760 876
e 762 904
e 765 905
e 765 803
e 766 875
e 767 949
e 768 858
e 768 839
e 768 821
e 768 862
e 769 939
e 769 876
e 769 916
e 771 975
e 773 780
e 774 844
e 776 831
e 777 999
e 777 953
e 777 951
e 779 905
e 780 970
e 782 974
e 782 812
e 784 977
e 787 923
e 791 970
e 791 864
e 793 869
e 794 921
e 794 938
e 796 951
e 802 821
e 802 982
e 803 837
e 803 817
e 808 827
e 808 824
e 810 814
e 812 954
e 812 838
e 812 827
e 813 889
e 813 878
e 815 840
e 816 889
e 819 908
e 820 966
e 823 950
e 823 870
e 823 846
e 824 835
e 824 873
e 826 932
e 826 966
e 827 984
e 827 940
e 830 995
e 833 976
e 839 840
e 840 882
e 841 984
e 841 870
e 843 947
e 844 949
e 846 849
e 849 945
e 849 977
e 850 882
e 851 888
e 857 933
e 860 961
e 861 898
e 864 986
e 865 887
e 870 882
e 871 962
e 872 890
e 875 917
e 880 952
e 888 923
e 888 952
e 889 991
e 889 908
e 893 988
e 896 993
e 896 909
e 900 967
e 904 923
e 904 934
e 910 951
e 911 972
e 916 932
e 916 921
e 917 949
e 918 967
e 923 942
e 924 927
e 926 947
e 935 999
e 936 992
e 938 979
e 940 990
e 952 968
e 959 987
e 959 975
e 959 972
