txt_Ins/graph-1000-439.txt
n 1000
e 0 732
e 0 949
e 0 514
e 2 856
e 2 298
e 2 143
e 3 129
e 3 611
e 3 224
e 3 885
e 3 39
e 5 164
e 5 408
e 5 871
e 5 64
e 5 860
e 5 102
e 5 145
e 6 349
e 6 375
e 6 156
e 7 809
e 7 103
e 7 564
e 7 311
e 7 764
e 8 128
e 8 944
e 8 934
e 8 631
e 8 16
e 8 903
e 8 901
e 9 939
e 9 39
e 9 279
e 9 623
e 9 610
e 9 302
e 10 407
e 10 560
e 10 437
e 11 691
e 11 849
e 11 497
e 11 127
e 12 904
e 12 87
e 12 91
e 12 497
e 12 240
e 13 366
e 13 764
e 13 138
e 13 409
e 14 772
e 14 660
e 14 62
e 15 940
e 15 87
e 15 662
e 15 78
e 16 810
e 16 821
e 17 771
e 17 92
e 17 333
e 17 226
e 17 370
e 17 732
e 17 825
e 18 719
e 18 801
e 18 840
e 18 88
e 18 194
e 18 420
e 19 662
e 19 571
e 19 417
e 19 191
e 19 538
e 19 296
e 20 971
e 20 407
e 20 664
e 20 543
e 20 207
e 20 106
e 21 561
e 21 854
e 21 110
e 21 362
e 21 46
e 21 655
e 23 68
e 23 590
e 23 567
e 23 650
e 23 901
e 24 80
e 24 629
e 24 896
e 24 335
e 24 373
e 25 210
e 25 718
e 25 196
e 25 849
e 25 977
e 26 266
e 26 201
e 26 220
e 26 302
e 28 82
e 28 103
e 28 632
e 28 642
e 29 847
e 29 696
e 29 844
e 29 692
e 29 421
e 29 904
e 29 727
e 30 848
e 30 331
e 30 405
e 31 843
e 31 705
e 31 259
e 33 175
e 33 199
e 33 624
e 33 69
e 36 54
e 36 832
e 36 568
e 36 932
e 36 597
e 36 974
e 38 156
e 38 606
e 38 238
e 38 571
e 38 576
e 39 167
e 39 234
e 39 217
e 39 402
e 39 876
e 40 815
e 40 965
e 40 816
e 41 944
e 41 706
e 41 618
e 41 754
e 41 281
e 41 774
e 41 449
e 41 490
e 46 836
e 46 351
e 48 116
e 48 200
e 48 907
e 48 791
e 48 934
e 48 513
e 48 971
e 49 149
e 49 713
e 49 69
e 49 455
e 49 751
e 50 490
e 50 660
e 50 151
e 51 696
e 51 799
e 51 975
e 51 135
e 51 598
e 51 587
e 51 292
e 52 568
e 52 934
e 52 764
e 52 509
e 53 149
e 53 400
e 53 128
e 53 107
e 54 691
e 54 454
e 54 492
e 54 729
e 55 975
e 55 74
e 55 786
e 55 361
e 55 887
e 56 66
e 56 727
e 56 363
e 56 354
e 56 862
e 56 450
e 56 297
e 57 337
e 57 276
e 57 127
e 57 890
e 57 927
e 57 285
e 59 391
e 59 827
e 59 703
e 59 519
e 61 288
e 61 221
e 61 124
e 61 606
e 61 212
e 62 825
e 62 465
e 62 349
e 62 723
e 63 618
e 63 607
e 63 529
e 64 458
e 64 148
e 64 229
e 64 100
e 64 818
e 65 523
e 65 881
e 65 876
e 65 362
e 66 355
e 66 480
e 66 302
e 68 202
e 68 908
e 68 380
e 68 859
e 69 328
e 69 192
e 70 202
e 70 306
e 70 671
e 70 783
e 70 759
e 72 431
e 72 396
e 72 278
e 74 347
e 74 940
e 74 613
e 74 739
e 74 589
e 74 148
e 74 86
e 74 367
e 77 819
e 77 885
e 77 812
e 78 513
e 78 509
e 78 301
e 78 250
e 78 623
e 80 603
e 80 885
e 80 451
e 81 414
e 81 836
e 81 758
e 81 711
e 82 285
e 82 762
e 82 227
e 82 825
e 82 581
e 83 139
e 83 547
e 83 328
e 83 903
e 83 171
e 84 556
e 84 793
e 84 822
e 84 126
e 85 147
e 85 916
e 85 966
e 86 324
e 86 343
e 86 158
e 86 864
e 86 957
e 86 355
e 86 767
e 86 113
e 87 880
e 87 282
e 87 854
e 87 978
e 87 399
e 87 364
e 87 295
e 87 770
e 88 938
e 88 333
e 89 175
e 89 449
e 89 620
e 89 520
e 89 412
e 91 981
e 91 545
e 92 205
e 92 624
e 92 747
e 92 631
e 92 523
e 92 376
e 93 197
e 93 382
e 93 916
e 94 592
e 94 560
e 94 345
e 95 809
e 95 212
e 95 394
e 96 965
e 96 886
e 96 862
e 97 199
e 97 704
e 97 206
e 97 532
e 100 529
e 100 300
e 102 904
e 102 484
e 102 114
e 103 944
e 103 382
e 103 896
e 103 476
e 103 313
e 103 650
e 103 853
e 104 492
e 104 183
e 104 489
e 105 346
e 105 880
e 105 913
e 105 200
e 105 345
e 105 385
e 106 530
e 106 258
e 106 945
e 106 494
e 106 731
e 107 434
e 107 903
e 107 620
e 107 962
e 107 663
e 108 878
e 108 945
e 108 869
e 109 973
e 109 362
e 109 560
e 109 149
e 110 714
e 110 761
e 111 426
e 111 960
e 111 545
e 111 891
e 111 838
e 112 799
e 112 923
e 112 190
e 112 235
e 112 754
e 112 633
e 113 701
e 113 158
e 113 626
e 113 906
e 114 859
e 114 294
e 114 118
e 114 841
e 114 352
e 114 421
e 114 199
e 114 816
e 115 762
e 115 604
e 115 576
e 116 356
e 116 698
e 117 152
e 117 815
e 117 771
e 118 807
e 118 994
e 119 839
e 119 854
e 119 259
e 119 254
e 120 701
e 120 506
e 120 496
e 120 460
e 120 595
e 120 943
e 120 127
e 124 743
e 124 840
e 124 282
e 124 354
e 125 946
e 125 428
e 125 799
e 125 765
e 125 315
e 126 715
e 126 166
e 126 230
e 126 190
e 127 840
e 127 203
e 128 312
e 128 834
e 128 861
e 128 756
e 129 920
e 129 273
e 129 682
e 129 281
e 132 379
e 132 917
e 132 725
e 132 378
e 132 939
e 132 428
e 134 952
e 134 634
e 134 156
e 135 857
e 135 622
e 135 530
e 135 136
e 136 889
e 136 295
e 136 809
e 138 485
e 138 648
e 138 420
e 138 543
e 139 822
e 139 962
e 139 306
e 139 273
e 139 741
e 140 366
e 140 439
e 140 310
e 140 280
e 141 716
e 141 719
e 141 663
e 141 872
e 142 938
e 142 817
e 142 745
e 143 744
e 143 934
e 143 923
e 144 615
e 144 493
e 144 324
e 144 299
e 145 818
e 145 955
e 145 149
e 146 502
e 146 299
e 146 703
e 146 331
e 146 694
e 146 631
e 147 969
e 147 953
e 147 924
e 147 701
e 147 626
e 148 800
e 148 156
e 149 437
e 149 592
e 149 221
e 150 851
e 150 402
e 150 332
e 150 714
e 150 790
e 150 174
e 151 415
e 151 207
e 151 227
e 151 786
e 151 844
e 152 861
e 152 973
e 152 279
e 152 775
e 152 564
e 152 815
e 153 568
e 153 566
e 153 282
e 153 302
e 155 276
e 155 353
e 155 475
e 155 829
e 155 725
e 156 895
e 156 804
e 156 282
e 157 174
e 157 462
e 157 414
e 158 804
e 158 269
e 158 973
e 158 703
e 158 186
e 158 200
e 158 428
e 163 708
e 163 566
e 163 981
e 163 865
e 164 679
e 164 609
e 164 606
e 164 909
e 165 361
e 165 913
e 165 638
e 166 810
e 166 192
e 166 492
e 166 813
e 167 922
e 167 191
e 167 725
e 167 803
e 167 501
e 167 764
e 167 328
e 167 378
e 168 819
e 168 605
e 168 826
e 168 891
e 168 475
e 169 584
e 169 356
e 169 658
e 171 349
e 171 473
e 171 601
e 171 869
e 171 258
e 172 916
e 172 728
e 172 709
e 172 863
e 172 368
e 172 184
e 172 363
e 174 664
e 174 681
e 174 666
e 174 907
e 175 496
e 175 919
e 176 690
e 176 369
e 176 765
e 176 615
e 177 826
e 177 346
e 177 922
e 178 455
e 178 948
e 178 699
e 178 509
e 179 610
e 179 250
e 179 887
e 179 679
e 179 994
e 180 513
e 180 827
e 180 649
e 180 752
e 180 935
e 182 512
e 182 288
e 182 320
e 183 783
e 183 719
e 183 198
e 184 250
e 184 839
e 185 786
e 185 986
e 185 816
e 186 814
e 186 778
e 186 355
e 186 302
e 186 694
e 187 602
e 187 337
e 187 477
e 187 275
e 187 933
e 190 448
e 190 774
e 191 759
e 191 802
e 191 598
e 192 776
e 192 339
e 192 845
e 192 311
e 192 693
e 192 687
e 193 338
e 193 506
e 193 488
e 194 842
e 194 628
e 196 875
e 196 791
e 196 347
e 196 238
e 197 616
e 197 271
e 197 639
e 197 265
e 197 948
e 198 613
e 198 923
e 198 375
e 198 286
e 198 611
e 199 328
e 199 975
e 199 938
e 200 202
e 200 549
e 201 295
e 201 803
e 202 525
e 203 434
e 203 679
e 203 795
e 204 725
e 204 985
e 204 300
e 204 266
e 204 614
e 205 628
e 205 717
e 205 661
e 206 710
e 206 738
e 206 218
e 206 362
e 206 958
e 206 577
e 207 526
e 207 793
e 207 658
e 207 675
e 208 789
e 208 264
e 208 286
e 208 867
e 208 799
e 209 703
e 209 523
e 209 973
e 209 389
e 210 872
e 210 548
e 210 924
e 210 892
e 212 477
e 212 348
e 212 427
e 212 887
e 214 364
e 214 254
e 214 881
e 214 754
e 214 577
e 215 421
e 215 424
e 215 294
e 215 238
e 217 679
e 217 959
e 217 783
e 218 591
e 218 565
e 219 404
e 219 412
e 219 773
e 220 247
e 220 775
e 221 224
e 221 405
e 221 889
e 221 335
e 223 943
e 223 938
e 223 286
e 223 425
e 224 631
e 224 771
e 224 521
e 224 940
e 225 937
e 225 624
e 225 356
e 226 485
e 226 521
e 227 388
e 227 901
e 227 699
e 227 945
e 227 266
e 227 697
e 229 512
e 229 899
e 229 907
e 229 375
e 229 955
e 229 734
e 229 285
e 230 814
e 230 821
e 230 310
e 230 633
e 231 541
e 231 990
e 231 494
e 231 443
e 232 704
e 232 234
e 232 909
e 234 793
e 234 450
e 235 868
e 235 925
e 236 768
e 236 346
e 236 525
e 236 892
e 238 744
e 238 417
e 240 756
e 240 744
e 240 959
e 242 758
e 242 799
e 242 516
e 245 510
e 245 343
e 245 356
e 245 664
e 245 434
e 247 941
e 247 486
e 247 601
e 247 898
e 249 724
e 249 663
e 249 618
e 250 867
e 250 858
e 253 943
e 253 888
e 253 761
e 254 691
e 254 301
e 254 856
e 254 745
e 256 407
e 256 276
e 256 353
e 256 859
e 256 340
e 256 972
e 257 974
e 257 745
e 257 953
e 258 853
e 258 600
e 259 471
e 259 355
e 259 849
e 259 272
e 259 743
e 259 910
e 259 297
e 261 957
e 261 616
e 261 878
e 264 419
e 264 629
e 264 821
e 265 926
e 265 418
e 265 861
e 265 826
e 265 842
e 265 402
e 265 302
e 266 713
e 266 650
e 266 926
e 266 447
e 269 292
e 269 925
e 269 881
e 269 564
e 269 738
e 269 839
e 270 477
e 270 855
e 270 376
e 271 937
e 271 523
e 272 399
e 272 710
e 273 922
e 273 279
e 273 286
e 273 898
e 273 609
e 273 568
e 274 638
e 274 504
e 274 380
e 275 987
e 275 423
e 275 509
e 275 460
e 276 936
e 276 688
e 276 901
e 276 532
e 276 849
e 276 691
e 278 336
e 278 719
e 278 723
e 279 369
e 280 345
e 280 958
e 281 568
e 282 571
e 282 376
e 282 734
e 282 627
e 282 514
e 282 981
e 282 859
e 282 781
e 283 642
e 283 418
e 283 458
e 283 434
e 283 568
e 283 497
e 283 691
e 283 843
e 285 960
e 285 926
e 286 962
e 286 394
e 286 712
e 286 904
e 287 437
e 287 994
e 287 832
e 287 868
e 287 869
e 287 504
e 288 948
e 288 430
e 288 649
e 288 872
e 292 800
e 292 324
e 294 379
e 294 424
e 294 698
e 294 983
e 295 316
e 295 724
e 295 786
e 296 509
e 296 306
e 297 351
e 298 933
e 298 724
e 298 510
e 298 434
e 299 385
e 299 538
e 299 682
e 299 843
e 300 547
e 300 396
e 300 665
e 301 707
e 301 352
e 301 587
e 301 425
e 301 593
e 302 439
e 302 481
e 302 881
e 302 734
e 303 665
e 303 632
e 303 449
e 303 320
e 303 444
e 303 878
e 306 462
e 306 870
e 306 521
e 306 380
e 306 563
e 306 439
e 310 628
e 311 428
e 311 460
e 311 821
e 311 363
e 312 606
e 312 770
e 312 349
e 313 357
e 313 791
e 315 621
e 315 877
e 316 800
e 316 659
e 318 519
e 318 858
e 318 589
e 319 939
e 319 437
e 319 613
e 319 583
e 320 778
e 320 419
e 322 486
e 322 492
e 322 844
e 322 681
e 323 483
e 323 597
e 323 387
e 323 474
e 323 605
e 324 902
e 324 983
e 324 825
e 326 556
e 326 694
e 326 927
e 326 664
e 326 486
e 326 964
e 328 632
e 328 858
e 329 525
e 329 792
e 329 734
e 331 841
e 331 792
e 332 363
e 332 687
e 332 820
e 332 832
e 332 757
e 332 636
e 333 523
e 333 692
e 333 629
e 333 959
e 334 408
e 334 868
e 334 931
e 334 662
e 335 587
e 336 357
e 336 563
e 337 946
e 337 439
e 338 767
e 338 951
e 338 491
e 338 654
e 338 874
e 339 514
e 339 989
e 339 614
e 339 491
e 340 602
e 340 969
e 340 959
e 343 362
e 345 349
e 345 424
e 346 919
e 346 576
e 347 765
e 347 786
e 347 676
e 347 987
e 347 902
e 347 724
e 348 391
e 348 886
e 348 548
e 349 841
e 349 526
e 349 391
e 349 602
e 350 889
e 350 449
e 350 592
e 351 439
e 351 565
e 351 772
e 351 538
e 352 435
e 352 504
e 353 708
e 353 818
e 353 962
e 353 866
e 354 812
e 355 704
e 355 732
e 356 492
e 356 813
e 356 870
e 356 868
e 356 688
e 357 811
e 357 370
e 357 708
e 357 847
e 358 896
e 358 474
e 358 519
e 358 868
e 359 910
e 359 864
e 359 576
e 359 790
e 359 639
e 361 418
e 361 413
e 361 887
e 361 466
e 362 957
e 363 820
e 363 671
e 363 692
e 363 483
e 363 854
e 364 586
e 364 665
e 364 455
e 364 594
e 366 829
e 366 491
e 366 691
e 367 959
e 367 458
e 368 783
e 368 627
e 369 842
e 369 490
e 370 624
e 373 521
e 373 857
e 373 941
e 375 538
e 375 559
e 375 389
e 375 723
e 376 598
e 376 541
e 378 783
e 378 407
e 379 609
e 379 991
e 380 810
e 380 962
e 380 618
e 380 515
e 382 734
e 382 712
e 385 739
e 387 632
e 387 423
e 387 476
e 388 946
e 388 807
e 388 879
e 389 481
e 389 480
e 390 655
e 390 983
e 390 661
e 390 391
e 391 751
e 391 472
e 391 407
e 392 470
e 392 416
e 392 417
e 394 561
e 396 613
e 396 566
e 397 432
e 397 541
e 397 990
e 399 594
e 399 868
e 400 870
e 400 749
e 400 532
e 402 690
e 402 664
e 402 850
e 403 801
e 403 707
e 403 908
e 404 707
e 404 775
e 405 590
e 405 459
e 405 703
e 407 967
e 407 817
e 408 437
e 409 814
e 409 854
e 410 814
e 410 855
e 410 826
e 410 773
e 412 650
e 412 461
e 412 859
e 412 699
e 413 959
e 413 820
e 413 971
e 414 572
e 414 597
e 415 707
e 415 681
e 415 969
e 415 795
e 416 737
e 416 430
e 417 462
e 417 658
e 418 937
e 418 641
e 418 520
e 418 759
e 419 669
e 420 770
e 420 639
e 420 891
e 421 792
e 422 840
e 422 807
e 422 966
e 422 830
e 423 451
e 423 716
e 424 475
e 424 725
e 424 938
e 424 529
e 424 555
e 425 858
e 425 509
e 426 655
e 426 627
e 426 444
e 426 941
e 427 751
e 427 963
e 427 961
e 427 936
e 430 584
e 430 471
e 430 545
e 431 488
e 431 770
e 432 523
e 432 853
e 432 475
e 434 515
e 435 959
e 435 845
e 438 990
e 438 692
e 438 651
e 438 693
e 439 697
e 439 597
e 441 468
e 441 764
e 441 862
e 441 485
e 441 544
e 443 841
e 443 648
e 444 597
e 444 973
e 447 793
e 447 849
e 447 566
e 448 987
e 448 940
e 449 804
e 450 991
e 450 989
e 450 506
e 451 571
e 451 601
e 451 675
e 451 706
e 451 564
e 454 654
e 454 917
e 454 641
e 455 574
e 455 593
e 459 792
e 459 608
e 459 641
e 459 519
e 460 602
e 460 631
e 461 821
e 461 793
e 461 752
e 461 837
e 462 874
e 462 554
e 465 698
e 465 849
e 465 909
e 465 941
e 466 915
e 466 899
e 467 617
e 467 590
e 467 557
e 467 560
e 468 525
e 468 779
e 470 666
e 470 629
e 470 761
e 470 779
e 471 920
e 471 633
e 472 827
e 472 571
e 473 878
e 473 705
e 474 504
e 474 683
e 475 557
e 475 821
e 475 865
e 476 885
e 477 594
e 477 492
e 477 762
e 477 516
e 478 614
e 478 489
e 478 601
e 480 865
e 480 717
e 481 493
e 483 943
e 483 606
e 484 851
e 484 745
e 484 946
e 484 922
e 484 543
e 485 504
e 485 554
e 485 551
e 485 927
e 486 855
e 486 826
e 487 879
e 487 957
e 487 534
e 487 962
e 487 752
e 488 981
e 488 602
e 488 924
e 489 565
e 489 529
e 489 937
e 491 496
e 492 631
e 493 558
e 494 605
e 494 520
e 494 795
e 497 827
e 498 847
e 498 530
e 498 860
e 501 937
e 501 664
e 502 884
e 502 574
e 502 544
e 502 745
e 502 752
e 502 586
e 504 903
e 504 925
e 506 552
e 506 870
e 509 523
e 509 895
e 509 998
e 510 789
e 512 860
e 512 825
e 513 557
e 513 699
e 513 896
e 513 613
e 514 523
e 514 629
e 514 604
e 515 581
e 515 890
e 515 870
e 516 838
e 516 764
e 519 990
e 519 608
e 520 972
e 520 963
e 521 670
e 521 739
e 525 741
e 526 938
e 526 964
e 527 629
e 527 820
e 527 773
e 528 843
e 528 919
e 528 624
e 529 734
e 529 896
e 529 669
e 530 660
e 530 880
e 531 824
e 531 603
e 531 859
e 532 661
e 532 795
e 532 670
e 534 800
e 534 654
e 537 822
e 537 704
e 537 946
e 538 618
e 541 717
e 543 807
e 543 913
e 543 579
e 543 586
e 543 743
e 544 955
e 544 974
e 544 690
e 544 946
e 544 818
e 547 716
e 548 920
e 548 985
e 548 747
e 548 879
e 548 860
e 549 613
e 549 694
e 551 848
e 551 986
e 551 776
e 551 748
e 552 965
e 552 910
e 552 593
e 552 761
e 554 559
e 554 819
e 555 817
e 555 663
e 555 676
e 556 854
e 557 741
e 557 708
e 557 712
e 558 696
e 558 756
e 559 841
e 559 939
e 559 707
e 560 710
e 561 963
e 561 594
e 561 744
e 563 849
e 563 896
e 563 729
e 563 597
e 564 671
e 564 594
e 564 978
e 564 809
e 564 843
e 564 751
e 565 843
e 565 583
e 565 971
e 566 913
e 566 595
e 566 843
e 566 855
e 567 952
e 567 710
e 567 774
e 568 795
e 568 838
e 572 913
e 572 581
e 572 851
e 574 960
e 574 661
e 574 699
e 577 817
e 577 745
e 577 779
e 579 895
e 579 834
e 579 862
e 583 823
e 583 981
e 583 789
e 583 757
e 583 638
e 584 887
e 584 943
e 586 832
e 586 611
e 589 716
e 589 600
e 590 712
e 590 617
e 591 620
e 591 739
e 591 896
e 592 629
e 592 734
e 592 895
e 593 959
e 595 683
e 597 952
e 597 791
e 598 603
e 598 608
e 599 803
e 599 623
e 599 622
e 600 934
e 601 744
e 601 761
e 603 724
e 603 976
e 604 909
e 604 631
e 604 844
e 605 952
e 605 766
e 606 766
e 607 786
e 607 964
e 608 848
e 608 737
e 609 776
e 609 662
e 609 967
e 609 844
e 610 813
e 610 826
e 610 669
e 611 867
e 611 809
e 613 998
e 614 983
e 615 663
e 615 837
e 615 922
e 616 711
e 616 799
e 617 807
e 617 704
e 620 945
e 620 813
e 621 850
e 621 824
e 622 639
e 623 824
e 623 879
e 623 913
e 624 978
e 625 732
e 625 920
e 625 713
e 625 670
e 625 847
e 626 639
e 626 682
e 626 827
e 627 747
e 627 925
e 627 998
e 627 857
e 628 841
e 631 896
e 631 780
e 631 934
e 633 636
e 634 936
e 634 902
e 634 909
e 636 709
e 639 661
e 641 866
e 642 884
e 642 877
e 642 939
e 648 903
e 648 973
e 649 827
e 650 813
e 650 906
e 650 840
e 651 840
e 651 799
e 651 977
e 654 698
e 654 848
e 655 977
e 658 800
e 659 757
e 659 992
e 659 832
e 659 770
e 661 693
e 661 754
e 662 765
e 663 876
e 663 712
e 663 780
e 665 992
e 666 716
e 669 977
e 669 931
e 669 847
e 670 814
e 670 972
e 670 920
e 675 906
e 676 850
e 676 711
e 676 877
e 676 727
e 677 773
e 677 775
e 677 926
e 677 759
e 681 859
e 681 704
e 682 766
e 682 844
e 683 992
e 683 898
e 687 748
e 687 832
e 687 783
e 688 897
e 690 718
e 690 710
e 690 885
e 691 832
e 691 866
e 692 890
e 694 941
e 694 907
e 694 890
e 697 891
e 698 920
e 698 731
e 699 863
e 699 962
e 701 870
e 701 845
e 703 793
e 703 775
e 704 821
e 705 961
e 706 881
e 709 715
e 709 885
e 711 985
e 714 781
e 714 826
e 715 862
e 716 945
e 717 944
e 717 821
e 718 932
e 718 950
e 723 897
e 723 728
e 727 774
e 727 871
e 728 811
e 728 941
e 729 926
e 729 877
e 731 863
e 731 799
e 731 977
e 732 865
e 734 966
e 737 854
e 738 747
e 738 940
e 739 829
e 745 876
e 745 830
e 748 919
e 748 949
e 748 824
e 749 884
e 749 818
e 751 989
e 754 770
e 757 935
e 757 853
e 758 780
e 758 989
e 759 875
e 761 903
e 764 904
e 764 802
e 765 874
e 766 948
e 767 857
e 767 838
e 767 820
e 767 861
e 768 938
e 768 875
e 768 915
e 770 974
e 772 779
e 773 843
e 775 830
e 776 998
e 776 952
e 776 950
e 778 904
e 779 969
e 781 973
e 781 811
e 783 976
e 786 922
e 790 969
e 790 863
e 792 868
e 793 920
e 793 937
e 795 950
e 801 820
e 801 981
e 802 836
e 802 816
e 807 826
e 807 823
e 809 813
e 811 953
e 811 837
e 811 826
e 812 888
e 812 877
e 814 839
e 815 888
e 818 907
e 819 965
e 822 949
e 822 869
e 822 845
e 823 834
e 823 872
e 825 931
e 825 965
e 826 983
e 826 939
e 829 994
e 832 975
e 838 839
e 839 881
e 840 983
e 840 869
e 842 946
e 843 948
e 845 848
e 848 944
e 848 976
e 849 881
e 850 887
e 856 932
e 859 960
e 860 897
e 863 985
e 864 886
e 869 881
e 870 961
e 871 889
e 874 916
e 879 951
e 887 922
e 887 951
e 888 990
e 888 907
e 892 987
e 895 992
e 895 908
e 899 966
e 903 922
e 903 933
e 909 950
e 910 971
e 915 931
e 915 920
e 916 948
e 917 966
e 922 941
e 923 926
e 925 946
e 934 998
e 935 991
e 937 978
e 939 989
e 951 967
e 958 986
e 958 974
e 958 971
